# conjunto de meses
param TEMPO := 10;

# conjunto da quantidade necessária de funcionários
param r := 1 20 2 10 3 8 4 14 5 25 6 25 7 11 8 9 9 8 10 6;

# conjunto do custo fixo caso haja contratação
param s := 1 50 2 51 3 52 4 63 5 67 6 61 7 49 8 52 9 68 10 54;

# conjunto do custo variável por pessoa contratada além do necessário
param c := 1 7 2 5 3 8 4 6 5 4 6 7 7 7 8 9 9 4 10 5;

